c at-most-one of 15 pigeons in 14 holes
c p1@1 1
c p1@2 2
c p1@3 3
c p1@4 4
c p1@5 5
c p1@6 6
c p1@7 7
c p1@8 8
c p1@9 9
c p1@10 10
c p1@11 11
c p1@12 12
c p1@13 13
c p1@14 14
c p2@1 15
c p2@2 16
c p2@3 17
c p2@4 18
c p2@5 19
c p2@6 20
c p2@7 21
c p2@8 22
c p2@9 23
c p2@10 24
c p2@11 25
c p2@12 26
c p2@13 27
c p2@14 28
c p3@1 29
c p3@2 30
c p3@3 31
c p3@4 32
c p3@5 33
c p3@6 34
c p3@7 35
c p3@8 36
c p3@9 37
c p3@10 38
c p3@11 39
c p3@12 40
c p3@13 41
c p3@14 42
c p4@1 43
c p4@2 44
c p4@3 45
c p4@4 46
c p4@5 47
c p4@6 48
c p4@7 49
c p4@8 50
c p4@9 51
c p4@10 52
c p4@11 53
c p4@12 54
c p4@13 55
c p4@14 56
c p5@1 57
c p5@2 58
c p5@3 59
c p5@4 60
c p5@5 61
c p5@6 62
c p5@7 63
c p5@8 64
c p5@9 65
c p5@10 66
c p5@11 67
c p5@12 68
c p5@13 69
c p5@14 70
c p6@1 71
c p6@2 72
c p6@3 73
c p6@4 74
c p6@5 75
c p6@6 76
c p6@7 77
c p6@8 78
c p6@9 79
c p6@10 80
c p6@11 81
c p6@12 82
c p6@13 83
c p6@14 84
c p7@1 85
c p7@2 86
c p7@3 87
c p7@4 88
c p7@5 89
c p7@6 90
c p7@7 91
c p7@8 92
c p7@9 93
c p7@10 94
c p7@11 95
c p7@12 96
c p7@13 97
c p7@14 98
c p8@1 99
c p8@2 100
c p8@3 101
c p8@4 102
c p8@5 103
c p8@6 104
c p8@7 105
c p8@8 106
c p8@9 107
c p8@10 108
c p8@11 109
c p8@12 110
c p8@13 111
c p8@14 112
c p9@1 113
c p9@2 114
c p9@3 115
c p9@4 116
c p9@5 117
c p9@6 118
c p9@7 119
c p9@8 120
c p9@9 121
c p9@10 122
c p9@11 123
c p9@12 124
c p9@13 125
c p9@14 126
c p10@1 127
c p10@2 128
c p10@3 129
c p10@4 130
c p10@5 131
c p10@6 132
c p10@7 133
c p10@8 134
c p10@9 135
c p10@10 136
c p10@11 137
c p10@12 138
c p10@13 139
c p10@14 140
c p11@1 141
c p11@2 142
c p11@3 143
c p11@4 144
c p11@5 145
c p11@6 146
c p11@7 147
c p11@8 148
c p11@9 149
c p11@10 150
c p11@11 151
c p11@12 152
c p11@13 153
c p11@14 154
c p12@1 155
c p12@2 156
c p12@3 157
c p12@4 158
c p12@5 159
c p12@6 160
c p12@7 161
c p12@8 162
c p12@9 163
c p12@10 164
c p12@11 165
c p12@12 166
c p12@13 167
c p12@14 168
c p13@1 169
c p13@2 170
c p13@3 171
c p13@4 172
c p13@5 173
c p13@6 174
c p13@7 175
c p13@8 176
c p13@9 177
c p13@10 178
c p13@11 179
c p13@12 180
c p13@13 181
c p13@14 182
c p14@1 183
c p14@2 184
c p14@3 185
c p14@4 186
c p14@5 187
c p14@6 188
c p14@7 189
c p14@8 190
c p14@9 191
c p14@10 192
c p14@11 193
c p14@12 194
c p14@13 195
c p14@14 196
c p15@1 197
c p15@2 198
c p15@3 199
c p15@4 200
c p15@5 201
c p15@6 202
c p15@7 203
c p15@8 204
c p15@9 205
c p15@10 206
c p15@11 207
c p15@12 208
c p15@13 209
c p15@14 210
p inccnf
1 2 3 4 5 6 7 8 9 10 11 12 13 14 0
15 16 17 18 19 20 21 22 23 24 25 26 27 28 0
29 30 31 32 33 34 35 36 37 38 39 40 41 42 0
43 44 45 46 47 48 49 50 51 52 53 54 55 56 0
57 58 59 60 61 62 63 64 65 66 67 68 69 70 0
71 72 73 74 75 76 77 78 79 80 81 82 83 84 0
85 86 87 88 89 90 91 92 93 94 95 96 97 98 0
99 100 101 102 103 104 105 106 107 108 109 110 111 112 0
113 114 115 116 117 118 119 120 121 122 123 124 125 126 0
127 128 129 130 131 132 133 134 135 136 137 138 139 140 0
141 142 143 144 145 146 147 148 149 150 151 152 153 154 0
155 156 157 158 159 160 161 162 163 164 165 166 167 168 0
169 170 171 172 173 174 175 176 177 178 179 180 181 182 0
183 184 185 186 187 188 189 190 191 192 193 194 195 196 0
197 198 199 200 201 202 203 204 205 206 207 208 209 210 0
-1 -15 0
-1 -29 0
-1 -43 0
-1 -57 0
-1 -71 0
-1 -85 0
-1 -99 0
-1 -113 0
-1 -127 0
-1 -141 0
-1 -155 0
-1 -169 0
-1 -183 0
-1 -197 0
-15 -29 0
-15 -43 0
-15 -57 0
-15 -71 0
-15 -85 0
-15 -99 0
-15 -113 0
-15 -127 0
-15 -141 0
-15 -155 0
-15 -169 0
-15 -183 0
-15 -197 0
-29 -43 0
-29 -57 0
-29 -71 0
-29 -85 0
-29 -99 0
-29 -113 0
-29 -127 0
-29 -141 0
-29 -155 0
-29 -169 0
-29 -183 0
-29 -197 0
-43 -57 0
-43 -71 0
-43 -85 0
-43 -99 0
-43 -113 0
-43 -127 0
-43 -141 0
-43 -155 0
-43 -169 0
-43 -183 0
-43 -197 0
-57 -71 0
-57 -85 0
-57 -99 0
-57 -113 0
-57 -127 0
-57 -141 0
-57 -155 0
-57 -169 0
-57 -183 0
-57 -197 0
-71 -85 0
-71 -99 0
-71 -113 0
-71 -127 0
-71 -141 0
-71 -155 0
-71 -169 0
-71 -183 0
-71 -197 0
-85 -99 0
-85 -113 0
-85 -127 0
-85 -141 0
-85 -155 0
-85 -169 0
-85 -183 0
-85 -197 0
-99 -113 0
-99 -127 0
-99 -141 0
-99 -155 0
-99 -169 0
-99 -183 0
-99 -197 0
-113 -127 0
-113 -141 0
-113 -155 0
-113 -169 0
-113 -183 0
-113 -197 0
-127 -141 0
-127 -155 0
-127 -169 0
-127 -183 0
-127 -197 0
-141 -155 0
-141 -169 0
-141 -183 0
-141 -197 0
-155 -169 0
-155 -183 0
-155 -197 0
-169 -183 0
-169 -197 0
-183 -197 0
-2 -16 0
-2 -30 0
-2 -44 0
-2 -58 0
-2 -72 0
-2 -86 0
-2 -100 0
-2 -114 0
-2 -128 0
-2 -142 0
-2 -156 0
-2 -170 0
-2 -184 0
-2 -198 0
-16 -30 0
-16 -44 0
-16 -58 0
-16 -72 0
-16 -86 0
-16 -100 0
-16 -114 0
-16 -128 0
-16 -142 0
-16 -156 0
-16 -170 0
-16 -184 0
-16 -198 0
-30 -44 0
-30 -58 0
-30 -72 0
-30 -86 0
-30 -100 0
-30 -114 0
-30 -128 0
-30 -142 0
-30 -156 0
-30 -170 0
-30 -184 0
-30 -198 0
-44 -58 0
-44 -72 0
-44 -86 0
-44 -100 0
-44 -114 0
-44 -128 0
-44 -142 0
-44 -156 0
-44 -170 0
-44 -184 0
-44 -198 0
-58 -72 0
-58 -86 0
-58 -100 0
-58 -114 0
-58 -128 0
-58 -142 0
-58 -156 0
-58 -170 0
-58 -184 0
-58 -198 0
-72 -86 0
-72 -100 0
-72 -114 0
-72 -128 0
-72 -142 0
-72 -156 0
-72 -170 0
-72 -184 0
-72 -198 0
-86 -100 0
-86 -114 0
-86 -128 0
-86 -142 0
-86 -156 0
-86 -170 0
-86 -184 0
-86 -198 0
-100 -114 0
-100 -128 0
-100 -142 0
-100 -156 0
-100 -170 0
-100 -184 0
-100 -198 0
-114 -128 0
-114 -142 0
-114 -156 0
-114 -170 0
-114 -184 0
-114 -198 0
-128 -142 0
-128 -156 0
-128 -170 0
-128 -184 0
-128 -198 0
-142 -156 0
-142 -170 0
-142 -184 0
-142 -198 0
-156 -170 0
-156 -184 0
-156 -198 0
-170 -184 0
-170 -198 0
-184 -198 0
-3 -17 0
-3 -31 0
-3 -45 0
-3 -59 0
-3 -73 0
-3 -87 0
-3 -101 0
-3 -115 0
-3 -129 0
-3 -143 0
-3 -157 0
-3 -171 0
-3 -185 0
-3 -199 0
-17 -31 0
-17 -45 0
-17 -59 0
-17 -73 0
-17 -87 0
-17 -101 0
-17 -115 0
-17 -129 0
-17 -143 0
-17 -157 0
-17 -171 0
-17 -185 0
-17 -199 0
-31 -45 0
-31 -59 0
-31 -73 0
-31 -87 0
-31 -101 0
-31 -115 0
-31 -129 0
-31 -143 0
-31 -157 0
-31 -171 0
-31 -185 0
-31 -199 0
-45 -59 0
-45 -73 0
-45 -87 0
-45 -101 0
-45 -115 0
-45 -129 0
-45 -143 0
-45 -157 0
-45 -171 0
-45 -185 0
-45 -199 0
-59 -73 0
-59 -87 0
-59 -101 0
-59 -115 0
-59 -129 0
-59 -143 0
-59 -157 0
-59 -171 0
-59 -185 0
-59 -199 0
-73 -87 0
-73 -101 0
-73 -115 0
-73 -129 0
-73 -143 0
-73 -157 0
-73 -171 0
-73 -185 0
-73 -199 0
-87 -101 0
-87 -115 0
-87 -129 0
-87 -143 0
-87 -157 0
-87 -171 0
-87 -185 0
-87 -199 0
-101 -115 0
-101 -129 0
-101 -143 0
-101 -157 0
-101 -171 0
-101 -185 0
-101 -199 0
-115 -129 0
-115 -143 0
-115 -157 0
-115 -171 0
-115 -185 0
-115 -199 0
-129 -143 0
-129 -157 0
-129 -171 0
-129 -185 0
-129 -199 0
-143 -157 0
-143 -171 0
-143 -185 0
-143 -199 0
-157 -171 0
-157 -185 0
-157 -199 0
-171 -185 0
-171 -199 0
-185 -199 0
-4 -18 0
-4 -32 0
-4 -46 0
-4 -60 0
-4 -74 0
-4 -88 0
-4 -102 0
-4 -116 0
-4 -130 0
-4 -144 0
-4 -158 0
-4 -172 0
-4 -186 0
-4 -200 0
-18 -32 0
-18 -46 0
-18 -60 0
-18 -74 0
-18 -88 0
-18 -102 0
-18 -116 0
-18 -130 0
-18 -144 0
-18 -158 0
-18 -172 0
-18 -186 0
-18 -200 0
-32 -46 0
-32 -60 0
-32 -74 0
-32 -88 0
-32 -102 0
-32 -116 0
-32 -130 0
-32 -144 0
-32 -158 0
-32 -172 0
-32 -186 0
-32 -200 0
-46 -60 0
-46 -74 0
-46 -88 0
-46 -102 0
-46 -116 0
-46 -130 0
-46 -144 0
-46 -158 0
-46 -172 0
-46 -186 0
-46 -200 0
-60 -74 0
-60 -88 0
-60 -102 0
-60 -116 0
-60 -130 0
-60 -144 0
-60 -158 0
-60 -172 0
-60 -186 0
-60 -200 0
-74 -88 0
-74 -102 0
-74 -116 0
-74 -130 0
-74 -144 0
-74 -158 0
-74 -172 0
-74 -186 0
-74 -200 0
-88 -102 0
-88 -116 0
-88 -130 0
-88 -144 0
-88 -158 0
-88 -172 0
-88 -186 0
-88 -200 0
-102 -116 0
-102 -130 0
-102 -144 0
-102 -158 0
-102 -172 0
-102 -186 0
-102 -200 0
-116 -130 0
-116 -144 0
-116 -158 0
-116 -172 0
-116 -186 0
-116 -200 0
-130 -144 0
-130 -158 0
-130 -172 0
-130 -186 0
-130 -200 0
-144 -158 0
-144 -172 0
-144 -186 0
-144 -200 0
-158 -172 0
-158 -186 0
-158 -200 0
-172 -186 0
-172 -200 0
-186 -200 0
-5 -19 0
-5 -33 0
-5 -47 0
-5 -61 0
-5 -75 0
-5 -89 0
-5 -103 0
-5 -117 0
-5 -131 0
-5 -145 0
-5 -159 0
-5 -173 0
-5 -187 0
-5 -201 0
-19 -33 0
-19 -47 0
-19 -61 0
-19 -75 0
-19 -89 0
-19 -103 0
-19 -117 0
-19 -131 0
-19 -145 0
-19 -159 0
-19 -173 0
-19 -187 0
-19 -201 0
-33 -47 0
-33 -61 0
-33 -75 0
-33 -89 0
-33 -103 0
-33 -117 0
-33 -131 0
-33 -145 0
-33 -159 0
-33 -173 0
-33 -187 0
-33 -201 0
-47 -61 0
-47 -75 0
-47 -89 0
-47 -103 0
-47 -117 0
-47 -131 0
-47 -145 0
-47 -159 0
-47 -173 0
-47 -187 0
-47 -201 0
-61 -75 0
-61 -89 0
-61 -103 0
-61 -117 0
-61 -131 0
-61 -145 0
-61 -159 0
-61 -173 0
-61 -187 0
-61 -201 0
-75 -89 0
-75 -103 0
-75 -117 0
-75 -131 0
-75 -145 0
-75 -159 0
-75 -173 0
-75 -187 0
-75 -201 0
-89 -103 0
-89 -117 0
-89 -131 0
-89 -145 0
-89 -159 0
-89 -173 0
-89 -187 0
-89 -201 0
-103 -117 0
-103 -131 0
-103 -145 0
-103 -159 0
-103 -173 0
-103 -187 0
-103 -201 0
-117 -131 0
-117 -145 0
-117 -159 0
-117 -173 0
-117 -187 0
-117 -201 0
-131 -145 0
-131 -159 0
-131 -173 0
-131 -187 0
-131 -201 0
-145 -159 0
-145 -173 0
-145 -187 0
-145 -201 0
-159 -173 0
-159 -187 0
-159 -201 0
-173 -187 0
-173 -201 0
-187 -201 0
-6 -20 0
-6 -34 0
-6 -48 0
-6 -62 0
-6 -76 0
-6 -90 0
-6 -104 0
-6 -118 0
-6 -132 0
-6 -146 0
-6 -160 0
-6 -174 0
-6 -188 0
-6 -202 0
-20 -34 0
-20 -48 0
-20 -62 0
-20 -76 0
-20 -90 0
-20 -104 0
-20 -118 0
-20 -132 0
-20 -146 0
-20 -160 0
-20 -174 0
-20 -188 0
-20 -202 0
-34 -48 0
-34 -62 0
-34 -76 0
-34 -90 0
-34 -104 0
-34 -118 0
-34 -132 0
-34 -146 0
-34 -160 0
-34 -174 0
-34 -188 0
-34 -202 0
-48 -62 0
-48 -76 0
-48 -90 0
-48 -104 0
-48 -118 0
-48 -132 0
-48 -146 0
-48 -160 0
-48 -174 0
-48 -188 0
-48 -202 0
-62 -76 0
-62 -90 0
-62 -104 0
-62 -118 0
-62 -132 0
-62 -146 0
-62 -160 0
-62 -174 0
-62 -188 0
-62 -202 0
-76 -90 0
-76 -104 0
-76 -118 0
-76 -132 0
-76 -146 0
-76 -160 0
-76 -174 0
-76 -188 0
-76 -202 0
-90 -104 0
-90 -118 0
-90 -132 0
-90 -146 0
-90 -160 0
-90 -174 0
-90 -188 0
-90 -202 0
-104 -118 0
-104 -132 0
-104 -146 0
-104 -160 0
-104 -174 0
-104 -188 0
-104 -202 0
-118 -132 0
-118 -146 0
-118 -160 0
-118 -174 0
-118 -188 0
-118 -202 0
-132 -146 0
-132 -160 0
-132 -174 0
-132 -188 0
-132 -202 0
-146 -160 0
-146 -174 0
-146 -188 0
-146 -202 0
-160 -174 0
-160 -188 0
-160 -202 0
-174 -188 0
-174 -202 0
-188 -202 0
-7 -21 0
-7 -35 0
-7 -49 0
-7 -63 0
-7 -77 0
-7 -91 0
-7 -105 0
-7 -119 0
-7 -133 0
-7 -147 0
-7 -161 0
-7 -175 0
-7 -189 0
-7 -203 0
-21 -35 0
-21 -49 0
-21 -63 0
-21 -77 0
-21 -91 0
-21 -105 0
-21 -119 0
-21 -133 0
-21 -147 0
-21 -161 0
-21 -175 0
-21 -189 0
-21 -203 0
-35 -49 0
-35 -63 0
-35 -77 0
-35 -91 0
-35 -105 0
-35 -119 0
-35 -133 0
-35 -147 0
-35 -161 0
-35 -175 0
-35 -189 0
-35 -203 0
-49 -63 0
-49 -77 0
-49 -91 0
-49 -105 0
-49 -119 0
-49 -133 0
-49 -147 0
-49 -161 0
-49 -175 0
-49 -189 0
-49 -203 0
-63 -77 0
-63 -91 0
-63 -105 0
-63 -119 0
-63 -133 0
-63 -147 0
-63 -161 0
-63 -175 0
-63 -189 0
-63 -203 0
-77 -91 0
-77 -105 0
-77 -119 0
-77 -133 0
-77 -147 0
-77 -161 0
-77 -175 0
-77 -189 0
-77 -203 0
-91 -105 0
-91 -119 0
-91 -133 0
-91 -147 0
-91 -161 0
-91 -175 0
-91 -189 0
-91 -203 0
-105 -119 0
-105 -133 0
-105 -147 0
-105 -161 0
-105 -175 0
-105 -189 0
-105 -203 0
-119 -133 0
-119 -147 0
-119 -161 0
-119 -175 0
-119 -189 0
-119 -203 0
-133 -147 0
-133 -161 0
-133 -175 0
-133 -189 0
-133 -203 0
-147 -161 0
-147 -175 0
-147 -189 0
-147 -203 0
-161 -175 0
-161 -189 0
-161 -203 0
-175 -189 0
-175 -203 0
-189 -203 0
-8 -22 0
-8 -36 0
-8 -50 0
-8 -64 0
-8 -78 0
-8 -92 0
-8 -106 0
-8 -120 0
-8 -134 0
-8 -148 0
-8 -162 0
-8 -176 0
-8 -190 0
-8 -204 0
-22 -36 0
-22 -50 0
-22 -64 0
-22 -78 0
-22 -92 0
-22 -106 0
-22 -120 0
-22 -134 0
-22 -148 0
-22 -162 0
-22 -176 0
-22 -190 0
-22 -204 0
-36 -50 0
-36 -64 0
-36 -78 0
-36 -92 0
-36 -106 0
-36 -120 0
-36 -134 0
-36 -148 0
-36 -162 0
-36 -176 0
-36 -190 0
-36 -204 0
-50 -64 0
-50 -78 0
-50 -92 0
-50 -106 0
-50 -120 0
-50 -134 0
-50 -148 0
-50 -162 0
-50 -176 0
-50 -190 0
-50 -204 0
-64 -78 0
-64 -92 0
-64 -106 0
-64 -120 0
-64 -134 0
-64 -148 0
-64 -162 0
-64 -176 0
-64 -190 0
-64 -204 0
-78 -92 0
-78 -106 0
-78 -120 0
-78 -134 0
-78 -148 0
-78 -162 0
-78 -176 0
-78 -190 0
-78 -204 0
-92 -106 0
-92 -120 0
-92 -134 0
-92 -148 0
-92 -162 0
-92 -176 0
-92 -190 0
-92 -204 0
-106 -120 0
-106 -134 0
-106 -148 0
-106 -162 0
-106 -176 0
-106 -190 0
-106 -204 0
-120 -134 0
-120 -148 0
-120 -162 0
-120 -176 0
-120 -190 0
-120 -204 0
-134 -148 0
-134 -162 0
-134 -176 0
-134 -190 0
-134 -204 0
-148 -162 0
-148 -176 0
-148 -190 0
-148 -204 0
-162 -176 0
-162 -190 0
-162 -204 0
-176 -190 0
-176 -204 0
-190 -204 0
-9 -23 0
-9 -37 0
-9 -51 0
-9 -65 0
-9 -79 0
-9 -93 0
-9 -107 0
-9 -121 0
-9 -135 0
-9 -149 0
-9 -163 0
-9 -177 0
-9 -191 0
-9 -205 0
-23 -37 0
-23 -51 0
-23 -65 0
-23 -79 0
-23 -93 0
-23 -107 0
-23 -121 0
-23 -135 0
-23 -149 0
-23 -163 0
-23 -177 0
-23 -191 0
-23 -205 0
-37 -51 0
-37 -65 0
-37 -79 0
-37 -93 0
-37 -107 0
-37 -121 0
-37 -135 0
-37 -149 0
-37 -163 0
-37 -177 0
-37 -191 0
-37 -205 0
-51 -65 0
-51 -79 0
-51 -93 0
-51 -107 0
-51 -121 0
-51 -135 0
-51 -149 0
-51 -163 0
-51 -177 0
-51 -191 0
-51 -205 0
-65 -79 0
-65 -93 0
-65 -107 0
-65 -121 0
-65 -135 0
-65 -149 0
-65 -163 0
-65 -177 0
-65 -191 0
-65 -205 0
-79 -93 0
-79 -107 0
-79 -121 0
-79 -135 0
-79 -149 0
-79 -163 0
-79 -177 0
-79 -191 0
-79 -205 0
-93 -107 0
-93 -121 0
-93 -135 0
-93 -149 0
-93 -163 0
-93 -177 0
-93 -191 0
-93 -205 0
-107 -121 0
-107 -135 0
-107 -149 0
-107 -163 0
-107 -177 0
-107 -191 0
-107 -205 0
-121 -135 0
-121 -149 0
-121 -163 0
-121 -177 0
-121 -191 0
-121 -205 0
-135 -149 0
-135 -163 0
-135 -177 0
-135 -191 0
-135 -205 0
-149 -163 0
-149 -177 0
-149 -191 0
-149 -205 0
-163 -177 0
-163 -191 0
-163 -205 0
-177 -191 0
-177 -205 0
-191 -205 0
-10 -24 0
-10 -38 0
-10 -52 0
-10 -66 0
-10 -80 0
-10 -94 0
-10 -108 0
-10 -122 0
-10 -136 0
-10 -150 0
-10 -164 0
-10 -178 0
-10 -192 0
-10 -206 0
-24 -38 0
-24 -52 0
-24 -66 0
-24 -80 0
-24 -94 0
-24 -108 0
-24 -122 0
-24 -136 0
-24 -150 0
-24 -164 0
-24 -178 0
-24 -192 0
-24 -206 0
-38 -52 0
-38 -66 0
-38 -80 0
-38 -94 0
-38 -108 0
-38 -122 0
-38 -136 0
-38 -150 0
-38 -164 0
-38 -178 0
-38 -192 0
-38 -206 0
-52 -66 0
-52 -80 0
-52 -94 0
-52 -108 0
-52 -122 0
-52 -136 0
-52 -150 0
-52 -164 0
-52 -178 0
-52 -192 0
-52 -206 0
-66 -80 0
-66 -94 0
-66 -108 0
-66 -122 0
-66 -136 0
-66 -150 0
-66 -164 0
-66 -178 0
-66 -192 0
-66 -206 0
-80 -94 0
-80 -108 0
-80 -122 0
-80 -136 0
-80 -150 0
-80 -164 0
-80 -178 0
-80 -192 0
-80 -206 0
-94 -108 0
-94 -122 0
-94 -136 0
-94 -150 0
-94 -164 0
-94 -178 0
-94 -192 0
-94 -206 0
-108 -122 0
-108 -136 0
-108 -150 0
-108 -164 0
-108 -178 0
-108 -192 0
-108 -206 0
-122 -136 0
-122 -150 0
-122 -164 0
-122 -178 0
-122 -192 0
-122 -206 0
-136 -150 0
-136 -164 0
-136 -178 0
-136 -192 0
-136 -206 0
-150 -164 0
-150 -178 0
-150 -192 0
-150 -206 0
-164 -178 0
-164 -192 0
-164 -206 0
-178 -192 0
-178 -206 0
-192 -206 0
-11 -25 0
-11 -39 0
-11 -53 0
-11 -67 0
-11 -81 0
-11 -95 0
-11 -109 0
-11 -123 0
-11 -137 0
-11 -151 0
-11 -165 0
-11 -179 0
-11 -193 0
-11 -207 0
-25 -39 0
-25 -53 0
-25 -67 0
-25 -81 0
-25 -95 0
-25 -109 0
-25 -123 0
-25 -137 0
-25 -151 0
-25 -165 0
-25 -179 0
-25 -193 0
-25 -207 0
-39 -53 0
-39 -67 0
-39 -81 0
-39 -95 0
-39 -109 0
-39 -123 0
-39 -137 0
-39 -151 0
-39 -165 0
-39 -179 0
-39 -193 0
-39 -207 0
-53 -67 0
-53 -81 0
-53 -95 0
-53 -109 0
-53 -123 0
-53 -137 0
-53 -151 0
-53 -165 0
-53 -179 0
-53 -193 0
-53 -207 0
-67 -81 0
-67 -95 0
-67 -109 0
-67 -123 0
-67 -137 0
-67 -151 0
-67 -165 0
-67 -179 0
-67 -193 0
-67 -207 0
-81 -95 0
-81 -109 0
-81 -123 0
-81 -137 0
-81 -151 0
-81 -165 0
-81 -179 0
-81 -193 0
-81 -207 0
-95 -109 0
-95 -123 0
-95 -137 0
-95 -151 0
-95 -165 0
-95 -179 0
-95 -193 0
-95 -207 0
-109 -123 0
-109 -137 0
-109 -151 0
-109 -165 0
-109 -179 0
-109 -193 0
-109 -207 0
-123 -137 0
-123 -151 0
-123 -165 0
-123 -179 0
-123 -193 0
-123 -207 0
-137 -151 0
-137 -165 0
-137 -179 0
-137 -193 0
-137 -207 0
-151 -165 0
-151 -179 0
-151 -193 0
-151 -207 0
-165 -179 0
-165 -193 0
-165 -207 0
-179 -193 0
-179 -207 0
-193 -207 0
-12 -26 0
-12 -40 0
-12 -54 0
-12 -68 0
-12 -82 0
-12 -96 0
-12 -110 0
-12 -124 0
-12 -138 0
-12 -152 0
-12 -166 0
-12 -180 0
-12 -194 0
-12 -208 0
-26 -40 0
-26 -54 0
-26 -68 0
-26 -82 0
-26 -96 0
-26 -110 0
-26 -124 0
-26 -138 0
-26 -152 0
-26 -166 0
-26 -180 0
-26 -194 0
-26 -208 0
-40 -54 0
-40 -68 0
-40 -82 0
-40 -96 0
-40 -110 0
-40 -124 0
-40 -138 0
-40 -152 0
-40 -166 0
-40 -180 0
-40 -194 0
-40 -208 0
-54 -68 0
-54 -82 0
-54 -96 0
-54 -110 0
-54 -124 0
-54 -138 0
-54 -152 0
-54 -166 0
-54 -180 0
-54 -194 0
-54 -208 0
-68 -82 0
-68 -96 0
-68 -110 0
-68 -124 0
-68 -138 0
-68 -152 0
-68 -166 0
-68 -180 0
-68 -194 0
-68 -208 0
-82 -96 0
-82 -110 0
-82 -124 0
-82 -138 0
-82 -152 0
-82 -166 0
-82 -180 0
-82 -194 0
-82 -208 0
-96 -110 0
-96 -124 0
-96 -138 0
-96 -152 0
-96 -166 0
-96 -180 0
-96 -194 0
-96 -208 0
-110 -124 0
-110 -138 0
-110 -152 0
-110 -166 0
-110 -180 0
-110 -194 0
-110 -208 0
-124 -138 0
-124 -152 0
-124 -166 0
-124 -180 0
-124 -194 0
-124 -208 0
-138 -152 0
-138 -166 0
-138 -180 0
-138 -194 0
-138 -208 0
-152 -166 0
-152 -180 0
-152 -194 0
-152 -208 0
-166 -180 0
-166 -194 0
-166 -208 0
-180 -194 0
-180 -208 0
-194 -208 0
-13 -27 0
-13 -41 0
-13 -55 0
-13 -69 0
-13 -83 0
-13 -97 0
-13 -111 0
-13 -125 0
-13 -139 0
-13 -153 0
-13 -167 0
-13 -181 0
-13 -195 0
-13 -209 0
-27 -41 0
-27 -55 0
-27 -69 0
-27 -83 0
-27 -97 0
-27 -111 0
-27 -125 0
-27 -139 0
-27 -153 0
-27 -167 0
-27 -181 0
-27 -195 0
-27 -209 0
-41 -55 0
-41 -69 0
-41 -83 0
-41 -97 0
-41 -111 0
-41 -125 0
-41 -139 0
-41 -153 0
-41 -167 0
-41 -181 0
-41 -195 0
-41 -209 0
-55 -69 0
-55 -83 0
-55 -97 0
-55 -111 0
-55 -125 0
-55 -139 0
-55 -153 0
-55 -167 0
-55 -181 0
-55 -195 0
-55 -209 0
-69 -83 0
-69 -97 0
-69 -111 0
-69 -125 0
-69 -139 0
-69 -153 0
-69 -167 0
-69 -181 0
-69 -195 0
-69 -209 0
-83 -97 0
-83 -111 0
-83 -125 0
-83 -139 0
-83 -153 0
-83 -167 0
-83 -181 0
-83 -195 0
-83 -209 0
-97 -111 0
-97 -125 0
-97 -139 0
-97 -153 0
-97 -167 0
-97 -181 0
-97 -195 0
-97 -209 0
-111 -125 0
-111 -139 0
-111 -153 0
-111 -167 0
-111 -181 0
-111 -195 0
-111 -209 0
-125 -139 0
-125 -153 0
-125 -167 0
-125 -181 0
-125 -195 0
-125 -209 0
-139 -153 0
-139 -167 0
-139 -181 0
-139 -195 0
-139 -209 0
-153 -167 0
-153 -181 0
-153 -195 0
-153 -209 0
-167 -181 0
-167 -195 0
-167 -209 0
-181 -195 0
-181 -209 0
-195 -209 0
-14 -28 0
-14 -42 0
-14 -56 0
-14 -70 0
-14 -84 0
-14 -98 0
-14 -112 0
-14 -126 0
-14 -140 0
-14 -154 0
-14 -168 0
-14 -182 0
-14 -196 0
-14 -210 0
-28 -42 0
-28 -56 0
-28 -70 0
-28 -84 0
-28 -98 0
-28 -112 0
-28 -126 0
-28 -140 0
-28 -154 0
-28 -168 0
-28 -182 0
-28 -196 0
-28 -210 0
-42 -56 0
-42 -70 0
-42 -84 0
-42 -98 0
-42 -112 0
-42 -126 0
-42 -140 0
-42 -154 0
-42 -168 0
-42 -182 0
-42 -196 0
-42 -210 0
-56 -70 0
-56 -84 0
-56 -98 0
-56 -112 0
-56 -126 0
-56 -140 0
-56 -154 0
-56 -168 0
-56 -182 0
-56 -196 0
-56 -210 0
-70 -84 0
-70 -98 0
-70 -112 0
-70 -126 0
-70 -140 0
-70 -154 0
-70 -168 0
-70 -182 0
-70 -196 0
-70 -210 0
-84 -98 0
-84 -112 0
-84 -126 0
-84 -140 0
-84 -154 0
-84 -168 0
-84 -182 0
-84 -196 0
-84 -210 0
-98 -112 0
-98 -126 0
-98 -140 0
-98 -154 0
-98 -168 0
-98 -182 0
-98 -196 0
-98 -210 0
-112 -126 0
-112 -140 0
-112 -154 0
-112 -168 0
-112 -182 0
-112 -196 0
-112 -210 0
-126 -140 0
-126 -154 0
-126 -168 0
-126 -182 0
-126 -196 0
-126 -210 0
-140 -154 0
-140 -168 0
-140 -182 0
-140 -196 0
-140 -210 0
-154 -168 0
-154 -182 0
-154 -196 0
-154 -210 0
-168 -182 0
-168 -196 0
-168 -210 0
-182 -196 0
-182 -210 0
-196 -210 0
a 1 16 0 
a 1 17 0 
a 1 18 0 
a 1 19 0 
a 1 20 0 
a 1 21 0 
a 1 22 0 
a 1 23 0 
a 1 24 0 
a 1 25 0 
a 1 26 0 
a 1 27 0 
a 1 28 0 
a 1 30 0 
a 1 31 0 
a 1 32 0 
a 1 33 0 
a 1 34 0 
a 1 35 0 
a 1 36 0 
a 1 37 0 
a 1 38 0 
a 1 39 0 
a 1 40 0 
a 1 41 0 
a 1 42 0 
a 1 44 0 
a 1 45 0 
a 1 46 0 
a 1 47 0 
a 1 48 0 
a 1 49 0 
a 1 50 0 
a 1 51 0 
a 1 52 0 
a 1 53 0 
a 1 54 0 
a 1 55 0 
a 1 56 0 
a 1 58 0 
a 1 59 0 
a 1 60 0 
a 1 61 0 
a 1 62 0 
a 1 63 0 
a 1 64 0 
a 1 65 0 
a 1 66 0 
a 1 67 0 
a 1 68 0 
a 1 69 0 
a 1 70 0 
a 1 72 0 
a 1 73 0 
a 1 74 0 
a 1 75 0 
a 1 76 0 
a 1 77 0 
a 1 78 0 
a 1 79 0 
a 1 80 0 
a 1 81 0 
a 1 82 0 
a 1 83 0 
a 1 84 0 
a 1 86 0 
a 1 87 0 
a 1 88 0 
a 1 89 0 
a 1 90 0 
a 1 91 0 
a 1 92 0 
a 1 93 0 
a 1 94 0 
a 1 95 0 
a 1 96 0 
a 1 97 0 
a 1 98 0 
a 1 100 0 
a 1 101 0 
a 1 102 0 
a 1 103 0 
a 1 104 0 
a 1 105 0 
a 1 106 0 
a 1 107 0 
a 1 108 0 
a 1 109 0 
a 1 110 0 
a 1 111 0 
a 1 112 0 
a 1 114 0 
a 1 115 0 
a 1 116 0 
a 1 117 0 
a 1 118 0 
a 1 119 0 
a 1 120 0 
a 1 121 0 
a 1 122 0 
a 1 123 0 
a 1 124 0 
a 1 125 0 
a 1 126 0 
a 1 128 0 
a 1 129 0 
a 1 130 0 
a 1 131 0 
a 1 132 0 
a 1 133 0 
a 1 134 0 
a 1 135 0 
a 1 136 0 
a 1 137 0 
a 1 138 0 
a 1 139 0 
a 1 140 0 
a 1 142 0 
a 1 143 0 
a 1 144 0 
a 1 145 0 
a 1 146 0 
a 1 147 0 
a 1 148 0 
a 1 149 0 
a 1 150 0 
a 1 151 0 
a 1 152 0 
a 1 153 0 
a 1 154 0 
a 1 156 0 
a 1 157 0 
a 1 158 0 
a 1 159 0 
a 1 160 0 
a 1 161 0 
a 1 162 0 
a 1 163 0 
a 1 164 0 
a 1 165 0 
a 1 166 0 
a 1 167 0 
a 1 168 0 
a 1 170 0 
a 1 171 0 
a 1 172 0 
a 1 173 0 
a 1 174 0 
a 1 175 0 
a 1 176 0 
a 1 177 0 
a 1 178 0 
a 1 179 0 
a 1 180 0 
a 1 181 0 
a 1 182 0 
a 1 184 0 
a 1 185 0 
a 1 186 0 
a 1 187 0 
a 1 188 0 
a 1 189 0 
a 1 190 0 
a 1 191 0 
a 1 192 0 
a 1 193 0 
a 1 194 0 
a 1 195 0 
a 1 196 0 
a 1 198 0 
a 1 199 0 
a 1 200 0 
a 1 201 0 
a 1 202 0 
a 1 203 0 
a 1 204 0 
a 1 205 0 
a 1 206 0 
a 1 207 0 
a 1 208 0 
a 1 209 0 
a 1 210 0 
a 16 31 0 
a 16 32 0 
a 16 33 0 
a 16 34 0 
a 16 35 0 
a 16 36 0 
a 16 37 0 
a 16 38 0 
a 16 39 0 
a 16 40 0 
a 16 41 0 
a 16 42 0 
a 16 45 0 
a 16 46 0 
a 16 47 0 
a 16 48 0 
a 16 49 0 
a 16 50 0 
a 16 51 0 
a 16 52 0 
a 16 53 0 
a 16 54 0 
a 16 55 0 
a 16 56 0 
a 16 59 0 
a 16 60 0 
a 16 61 0 
a 16 62 0 
a 16 63 0 
a 16 64 0 
a 16 65 0 
a 16 66 0 
a 16 67 0 
a 16 68 0 
a 16 69 0 
a 16 70 0 
a 16 73 0 
a 16 74 0 
a 16 75 0 
a 16 76 0 
a 16 77 0 
a 16 78 0 
a 16 79 0 
a 16 80 0 
a 16 81 0 
a 16 82 0 
a 16 83 0 
a 16 84 0 
a 16 87 0 
a 16 88 0 
a 16 89 0 
a 16 90 0 
a 16 91 0 
a 16 92 0 
a 16 93 0 
a 16 94 0 
a 16 95 0 
a 16 96 0 
a 16 97 0 
a 16 98 0 
a 16 101 0 
a 16 102 0 
a 16 103 0 
a 16 104 0 
a 16 105 0 
a 16 106 0 
a 16 107 0 
a 16 108 0 
a 16 109 0 
a 16 110 0 
a 16 111 0 
a 16 112 0 
a 16 115 0 
a 16 116 0 
a 16 117 0 
a 16 118 0 
a 16 119 0 
a 16 120 0 
a 16 121 0 
a 16 122 0 
a 16 123 0 
a 16 124 0 
a 16 125 0 
a 16 126 0 
a 16 129 0 
a 16 130 0 
a 16 131 0 
a 16 132 0 
a 16 133 0 
a 16 134 0 
a 16 135 0 
a 16 136 0 
a 16 137 0 
a 16 138 0 
a 16 139 0 
a 16 140 0 
a 16 143 0 
a 16 144 0 
a 16 145 0 
a 16 146 0 
a 16 147 0 
a 16 148 0 
a 16 149 0 
a 16 150 0 
a 16 151 0 
a 16 152 0 
a 16 153 0 
a 16 154 0 
a 16 157 0 
a 16 158 0 
a 16 159 0 
a 16 160 0 
a 16 161 0 
a 16 162 0 
a 16 163 0 
a 16 164 0 
a 16 165 0 
a 16 166 0 
a 16 167 0 
a 16 168 0 
a 16 171 0 
a 16 172 0 
a 16 173 0 
a 16 174 0 
a 16 175 0 
a 16 176 0 
a 16 177 0 
a 16 178 0 
a 16 179 0 
a 16 180 0 
a 16 181 0 
a 16 182 0 
a 16 185 0 
a 16 186 0 
a 16 187 0 
a 16 188 0 
a 16 189 0 
a 16 190 0 
a 16 191 0 
a 16 192 0 
a 16 193 0 
a 16 194 0 
a 16 195 0 
a 16 196 0 
a 16 199 0 
a 16 200 0 
a 16 201 0 
a 16 202 0 
a 16 203 0 
a 16 204 0 
a 16 205 0 
a 16 206 0 
a 16 207 0 
a 16 208 0 
a 16 209 0 
a 16 210 0 
a 31 46 0 
a 31 47 0 
a 31 48 0 
a 31 49 0 
a 31 50 0 
a 31 51 0 
a 31 52 0 
a 31 53 0 
a 31 54 0 
a 31 55 0 
a 31 56 0 
a 31 60 0 
a 31 61 0 
a 31 62 0 
a 31 63 0 
a 31 64 0 
a 31 65 0 
a 31 66 0 
a 31 67 0 
a 31 68 0 
a 31 69 0 
a 31 70 0 
a 31 74 0 
a 31 75 0 
a 31 76 0 
a 31 77 0 
a 31 78 0 
a 31 79 0 
a 31 80 0 
a 31 81 0 
a 31 82 0 
a 31 83 0 
a 31 84 0 
a 31 88 0 
a 31 89 0 
a 31 90 0 
a 31 91 0 
a 31 92 0 
a 31 93 0 
a 31 94 0 
a 31 95 0 
a 31 96 0 
a 31 97 0 
a 31 98 0 
a 31 102 0 
a 31 103 0 
a 31 104 0 
a 31 105 0 
a 31 106 0 
a 31 107 0 
a 31 108 0 
a 31 109 0 
a 31 110 0 
a 31 111 0 
a 31 112 0 
a 31 116 0 
a 31 117 0 
a 31 118 0 
a 31 119 0 
a 31 120 0 
a 31 121 0 
a 31 122 0 
a 31 123 0 
a 31 124 0 
a 31 125 0 
a 31 126 0 
a 31 130 0 
a 31 131 0 
a 31 132 0 
a 31 133 0 
a 31 134 0 
a 31 135 0 
a 31 136 0 
a 31 137 0 
a 31 138 0 
a 31 139 0 
a 31 140 0 
a 31 144 0 
a 31 145 0 
a 31 146 0 
a 31 147 0 
a 31 148 0 
a 31 149 0 
a 31 150 0 
a 31 151 0 
a 31 152 0 
a 31 153 0 
a 31 154 0 
a 31 158 0 
a 31 159 0 
a 31 160 0 
a 31 161 0 
a 31 162 0 
a 31 163 0 
a 31 164 0 
a 31 165 0 
a 31 166 0 
a 31 167 0 
a 31 168 0 
a 31 172 0 
a 31 173 0 
a 31 174 0 
a 31 175 0 
a 31 176 0 
a 31 177 0 
a 31 178 0 
a 31 179 0 
a 31 180 0 
a 31 181 0 
a 31 182 0 
a 31 186 0 
a 31 187 0 
a 31 188 0 
a 31 189 0 
a 31 190 0 
a 31 191 0 
a 31 192 0 
a 31 193 0 
a 31 194 0 
a 31 195 0 
a 31 196 0 
a 31 200 0 
a 31 201 0 
a 31 202 0 
a 31 203 0 
a 31 204 0 
a 31 205 0 
a 31 206 0 
a 31 207 0 
a 31 208 0 
a 31 209 0 
a 31 210 0 
a 46 61 0 
a 46 62 0 
a 46 63 0 
a 46 64 0 
a 46 65 0 
a 46 66 0 
a 46 67 0 
a 46 68 0 
a 46 69 0 
a 46 70 0 
a 46 75 0 
a 46 76 0 
a 46 77 0 
a 46 78 0 
a 46 79 0 
a 46 80 0 
a 46 81 0 
a 46 82 0 
a 46 83 0 
a 46 84 0 
a 46 89 0 
a 46 90 0 
a 46 91 0 
a 46 92 0 
a 46 93 0 
a 46 94 0 
a 46 95 0 
a 46 96 0 
a 46 97 0 
a 46 98 0 
a 46 103 0 
a 46 104 0 
a 46 105 0 
a 46 106 0 
a 46 107 0 
a 46 108 0 
a 46 109 0 
a 46 110 0 
a 46 111 0 
a 46 112 0 
a 46 117 0 
a 46 118 0 
a 46 119 0 
a 46 120 0 
a 46 121 0 
a 46 122 0 
a 46 123 0 
a 46 124 0 
a 46 125 0 
a 46 126 0 
a 46 131 0 
a 46 132 0 
a 46 133 0 
a 46 134 0 
a 46 135 0 
a 46 136 0 
a 46 137 0 
a 46 138 0 
a 46 139 0 
a 46 140 0 
a 46 145 0 
a 46 146 0 
a 46 147 0 
a 46 148 0 
a 46 149 0 
a 46 150 0 
a 46 151 0 
a 46 152 0 
a 46 153 0 
a 46 154 0 
a 46 159 0 
a 46 160 0 
a 46 161 0 
a 46 162 0 
a 46 163 0 
a 46 164 0 
a 46 165 0 
a 46 166 0 
a 46 167 0 
a 46 168 0 
a 46 173 0 
a 46 174 0 
a 46 175 0 
a 46 176 0 
a 46 177 0 
a 46 178 0 
a 46 179 0 
a 46 180 0 
a 46 181 0 
a 46 182 0 
a 46 187 0 
a 46 188 0 
a 46 189 0 
a 46 190 0 
a 46 191 0 
a 46 192 0 
a 46 193 0 
a 46 194 0 
a 46 195 0 
a 46 196 0 
a 46 201 0 
a 46 202 0 
a 46 203 0 
a 46 204 0 
a 46 205 0 
a 46 206 0 
a 46 207 0 
a 46 208 0 
a 46 209 0 
a 46 210 0 
a 61 76 0 
a 61 77 0 
a 61 78 0 
a 61 79 0 
a 61 80 0 
a 61 81 0 
a 61 82 0 
a 61 83 0 
a 61 84 0 
a 61 90 0 
a 61 91 0 
a 61 92 0 
a 61 93 0 
a 61 94 0 
a 61 95 0 
a 61 96 0 
a 61 97 0 
a 61 98 0 
a 61 104 0 
a 61 105 0 
a 61 106 0 
a 61 107 0 
a 61 108 0 
a 61 109 0 
a 61 110 0 
a 61 111 0 
a 61 112 0 
a 61 118 0 
a 61 119 0 
a 61 120 0 
a 61 121 0 
a 61 122 0 
a 61 123 0 
a 61 124 0 
a 61 125 0 
a 61 126 0 
a 61 132 0 
a 61 133 0 
a 61 134 0 
a 61 135 0 
a 61 136 0 
a 61 137 0 
a 61 138 0 
a 61 139 0 
a 61 140 0 
a 61 146 0 
a 61 147 0 
a 61 148 0 
a 61 149 0 
a 61 150 0 
a 61 151 0 
a 61 152 0 
a 61 153 0 
a 61 154 0 
a 61 160 0 
a 61 161 0 
a 61 162 0 
a 61 163 0 
a 61 164 0 
a 61 165 0 
a 61 166 0 
a 61 167 0 
a 61 168 0 
a 61 174 0 
a 61 175 0 
a 61 176 0 
a 61 177 0 
a 61 178 0 
a 61 179 0 
a 61 180 0 
a 61 181 0 
a 61 182 0 
a 61 188 0 
a 61 189 0 
a 61 190 0 
a 61 191 0 
a 61 192 0 
a 61 193 0 
a 61 194 0 
a 61 195 0 
a 61 196 0 
a 61 202 0 
a 61 203 0 
a 61 204 0 
a 61 205 0 
a 61 206 0 
a 61 207 0 
a 61 208 0 
a 61 209 0 
a 61 210 0 
a 76 91 0 
a 76 92 0 
a 76 93 0 
a 76 94 0 
a 76 95 0 
a 76 96 0 
a 76 97 0 
a 76 98 0 
a 76 105 0 
a 76 106 0 
a 76 107 0 
a 76 108 0 
a 76 109 0 
a 76 110 0 
a 76 111 0 
a 76 112 0 
a 76 119 0 
a 76 120 0 
a 76 121 0 
a 76 122 0 
a 76 123 0 
a 76 124 0 
a 76 125 0 
a 76 126 0 
a 76 133 0 
a 76 134 0 
a 76 135 0 
a 76 136 0 
a 76 137 0 
a 76 138 0 
a 76 139 0 
a 76 140 0 
a 76 147 0 
a 76 148 0 
a 76 149 0 
a 76 150 0 
a 76 151 0 
a 76 152 0 
a 76 153 0 
a 76 154 0 
a 76 161 0 
a 76 162 0 
a 76 163 0 
a 76 164 0 
a 76 165 0 
a 76 166 0 
a 76 167 0 
a 76 168 0 
a 76 175 0 
a 76 176 0 
a 76 177 0 
a 76 178 0 
a 76 179 0 
a 76 180 0 
a 76 181 0 
a 76 182 0 
a 76 189 0 
a 76 190 0 
a 76 191 0 
a 76 192 0 
a 76 193 0 
a 76 194 0 
a 76 195 0 
a 76 196 0 
a 76 203 0 
a 76 204 0 
a 76 205 0 
a 76 206 0 
a 76 207 0 
a 76 208 0 
a 76 209 0 
a 76 210 0 
a 91 106 0 
a 91 107 0 
a 91 108 0 
a 91 109 0 
a 91 110 0 
a 91 111 0 
a 91 112 0 
a 91 120 0 
a 91 121 0 
a 91 122 0 
a 91 123 0 
a 91 124 0 
a 91 125 0 
a 91 126 0 
a 91 134 0 
a 91 135 0 
a 91 136 0 
a 91 137 0 
a 91 138 0 
a 91 139 0 
a 91 140 0 
a 91 148 0 
a 91 149 0 
a 91 150 0 
a 91 151 0 
a 91 152 0 
a 91 153 0 
a 91 154 0 
a 91 162 0 
a 91 163 0 
a 91 164 0 
a 91 165 0 
a 91 166 0 
a 91 167 0 
a 91 168 0 
a 91 176 0 
a 91 177 0 
a 91 178 0 
a 91 179 0 
a 91 180 0 
a 91 181 0 
a 91 182 0 
a 91 190 0 
a 91 191 0 
a 91 192 0 
a 91 193 0 
a 91 194 0 
a 91 195 0 
a 91 196 0 
a 91 204 0 
a 91 205 0 
a 91 206 0 
a 91 207 0 
a 91 208 0 
a 91 209 0 
a 91 210 0 
a 106 121 0 
a 106 122 0 
a 106 123 0 
a 106 124 0 
a 106 125 0 
a 106 126 0 
a 106 135 0 
a 106 136 0 
a 106 137 0 
a 106 138 0 
a 106 139 0 
a 106 140 0 
a 106 149 0 
a 106 150 0 
a 106 151 0 
a 106 152 0 
a 106 153 0 
a 106 154 0 
a 106 163 0 
a 106 164 0 
a 106 165 0 
a 106 166 0 
a 106 167 0 
a 106 168 0 
a 106 177 0 
a 106 178 0 
a 106 179 0 
a 106 180 0 
a 106 181 0 
a 106 182 0 
a 106 191 0 
a 106 192 0 
a 106 193 0 
a 106 194 0 
a 106 195 0 
a 106 196 0 
a 106 205 0 
a 106 206 0 
a 106 207 0 
a 106 208 0 
a 106 209 0 
a 106 210 0 
a 121 136 0 
a 121 137 0 
a 121 138 0 
a 121 139 0 
a 121 140 0 
a 121 150 0 
a 121 151 0 
a 121 152 0 
a 121 153 0 
a 121 154 0 
a 121 164 0 
a 121 165 0 
a 121 166 0 
a 121 167 0 
a 121 168 0 
a 121 178 0 
a 121 179 0 
a 121 180 0 
a 121 181 0 
a 121 182 0 
a 121 192 0 
a 121 193 0 
a 121 194 0 
a 121 195 0 
a 121 196 0 
a 121 206 0 
a 121 207 0 
a 121 208 0 
a 121 209 0 
a 121 210 0 
a 136 151 0 
a 136 152 0 
a 136 153 0 
a 136 154 0 
a 136 165 0 
a 136 166 0 
a 136 167 0 
a 136 168 0 
a 136 179 0 
a 136 180 0 
a 136 181 0 
a 136 182 0 
a 136 193 0 
a 136 194 0 
a 136 195 0 
a 136 196 0 
a 136 207 0 
a 136 208 0 
a 136 209 0 
a 136 210 0 
a 151 166 0 
a 151 167 0 
a 151 168 0 
a 151 180 0 
a 151 181 0 
a 151 182 0 
a 151 194 0 
a 151 195 0 
a 151 196 0 
a 151 208 0 
a 151 209 0 
a 151 210 0 
a 166 181 0 
a 166 182 0 
a 166 195 0 
a 166 196 0 
a 166 209 0 
a 166 210 0 
a 181 196 0 
a 181 210 0 
